4 
5  05 20 35 48 55 
6  03 10 20 27 35 42 50 57 
7  05 12 20 27 35 42 50 57 
8  05 12 20 27 35 42 50 57 
9  05 12 20 27 35 42 54 
10  01 09 16 24 31 39 46 54 
11  01 09 16 24 31 39 46 54 
12  01 09 16 24 31 39 46 54 
13  01 09 16 24 31 39 46 54 
14  01 09 16 24 31 39 46 54 
15  05 13 20 27 35 43 50 58 
16  05 13 20 28 35 43 50 58 
17  05 13 20 28 35 43 50 59 
18  05 14 20 29 35 44 50 58 
19  09 16 24 31 39 46 56 
20  06 14 22 36 50 
21  05 20 35 50 
22  05 16 31 46 
23  01 21 
0 
